\Problem name: no_name

Minimize
OBJROW: x0 + x1 + x2 + x3 + x4 + x5 + x6 + x7 + x8
Subject To
R0:  x0 + x1 + x2 + x3 + x6 >= 1
R1:  x0 + x1 + x2 + x4 + x7 >= 1
R2:  x0 + x1 + x2 + x5 + x8 >= 1
R3:  x0 + x3 + x4 + x5 + x6 >= 1
R4:  x1 + x3 + x4 + x5 + x7 >= 1
R5:  x2 + x3 + x4 + x5 + x8 >= 1
R6:  x0 + x3 + x6 + x7 + x8 >= 1
R7:  x1 + x4 + x6 + x7 + x8 >= 1
R8:  x2 + x5 + x6 + x7 + x8 >= 1
R9:  -2 x0 -3 x1 -3 x2 -3 x3 -3 x4 -3 x5 -3 x6 -3 x7 -3 x8 <= -6
R10:  -4 x0 -4 x1 -4 x2 -4 x3 -4 x4 -4 x5 -4 x6 -4 x7 -4 x8 <= -8
R0000011:  -8 x0 -6 x1 -12 x2 -12 x3 -12 x4 -15 x5 -12 x6 -12 x7 -15 x8 <= -24
R0000012:  -2 x0 -2 x2 -2 x3 -2 x4 -3 x5 -2 x6 -2 x7 -3 x8 <= -4
Bounds
 0 <= x0 <= 1
 0 <= x1 <= 1
 0 <= x2 <= 1
 0 <= x3 <= 1
 0 <= x4 <= 1
 0 <= x5 <= 1
 0 <= x6 <= 1
 0 <= x7 <= 1
 0 <= x8 <= 1
End
